(set-logic BV)

(define-fun ehad ((x (_ BitVec 64))) (_ BitVec 64)
    (bvlshr x #x0000000000000001))
(define-fun arba ((x (_ BitVec 64))) (_ BitVec 64)
    (bvlshr x #x0000000000000004))
(define-fun shesh ((x (_ BitVec 64))) (_ BitVec 64)
    (bvlshr x #x0000000000000010))
(define-fun smol ((x (_ BitVec 64))) (_ BitVec 64)
    (bvshl x #x0000000000000001))
(define-fun im ((x (_ BitVec 64)) (y (_ BitVec 64)) (z (_ BitVec 64))) (_ BitVec 64)
    (ite (= x #x0000000000000001) y z))
(synth-fun f ((x (_ BitVec 64))) (_ BitVec 64)
    ((Start (_ BitVec 64)))
    ((Start (_ BitVec 64) (#x0000000000000000 #x0000000000000001 x (bvnot Start) (smol Start) (ehad Start) (arba Start) (shesh Start) (bvand Start Start) (bvor Start Start) (bvxor Start Start) (bvadd Start Start) (im Start Start Start)))))

(constraint (= (f #xbc9b36c3d3a6d7ae) #x0c5ad5b4474eb78f))
(constraint (= (f #x618e7d2b3028b505) #x0a292877d5079df0))
(constraint (= (f #xb2b31021e72b4583) #xb2b31021e72b4584))
(constraint (= (f #x903339ca8258b7e1) #x0b0554a5f86e9d82))
(constraint (= (f #x0d72a11da419b8ba) #x01797e326ec2ac9c))
(constraint (= (f #x2aa39ec9b16d03ed) #x2aa39ec9b16d03ee))
(constraint (= (f #xa5eed08e88aa35e9) #xa5eed08e88aa35ea))
(constraint (= (f #xa114ed4659e71556) #xa114ed4659e71557))
(constraint (= (f #x115e3b5bccb66c11) #x115e3b5bccb66c12))
(constraint (= (f #xd0c872b4060c0d8a) #xd0c872b4060c0d8b))

(check-synth)

